p tw 124 137
1 2
2 37
3 14
4 5
5 6
6 7
7 55
8 9
9 10
9 17
10 11
10 13
11 12
12 28
13 15
14 25
15 16
16 17
17 18
18 19
19 20
19 22
20 21
21 28
22 23
23 24
24 26
25 30
26 27
27 28
28 29
30 31
31 32
31 8
32 33
33 34
33 36
34 35
35 28
36 38
37 48
38 39
38 45
39 40
39 42
40 41
41 28
42 43
43 44
44 45
45 46
46 47
47 49
48 59
49 50
49 52
50 51
51 28
52 53
53 54
54 55
55 56
56 57
56 81
57 58
58 60
59 70
60 61
61 62
62 63
63 64
64 65
65 66
65 77
66 67
67 68
67 71
68 69
69 28
70 81
71 72
72 73
73 74
74 75
75 76
76 5
77 78
78 79
79 80
80 82
80 118
81 92
82 83
83 84
84 85
84 87
85 86
86 28
87 88
88 89
89 90
90 91
91 93
92 103
93 94
94 95
95 96
96 97
97 98
98 99
99 100
100 101
101 102
102 104
103 114
104 105
105 106
106 107
107 108
108 109
109 110
110 111
111 112
112 113
113 115
114 3
115 116
116 117
117 5
118 119
119 120
120 121
120 123
121 122
122 28
123 124
124 4
